47
[[-1, 0, 0, 0, 0, 0, 0, 0, 37650, 0, 39770, 0, 0, 0, 27912, 0, 0, 31949, 21237, 0, 0, 0, 0, 0, 0, 0, 0, 0, 0, 12881, 0, 0, 0, 0, 0, 28561, 45093, 23182, 0, 39262, 0, 45668, 27192, 0, 43549, 43895, 0],[0, -1, 0, 0, 0, 0, 0, 0, 0, 0, 0, 0, 0, 0, 24958, 0, 0, 0, 0, 35675, 0, 0, 0, 0, 0, 0, 39105, 0, 0, 0, 0, 0, 27107, 0, 0, 0, 0, 25812, 0, 0, 0, 37643, 0, 0, 0, 0, 0],[0, 0, -1, 0, 0, 15098, 0, 0, 21712, 36911, 0, 0, 0, 9401, 0, 0, 0, 0, 0, 508533803, 0, 0, 3982, 0, 0, 0, 0, 0, 0, 0, 8036, 0, 31954, 0, 0, 0, 0, 0, 0, 46061, 0, 0, 0, 42288, 0, 0, 0],[0, 0, 0, -1, 0, 35139, 29293, 0, 0, 21284, 0, 0, 0, 0, 0, 0, 0, 0, 0, 0, 23701, 0, 0, 0, 0, 28034, 38137, 0, 38439, 13999, 0, 0, 40530, 0, 0, 0, 0, 0, 0, 0, 0, 0, 0, 0, 0, 0, 0],[0, 0, 0, 0, -1, 39103, 0, 0, 36863, 0, 0, 17721, 0, 0, 45991, 26521, 0, 0, 0, 24293, 0, 27918, 0, 0, 39417, 18424, 0, 0, 0, 0, 0, 0, 0, 29147, 0, 0, 0, 0, 0, 0, 0, 0, 0, 0, 0, 0, 0],[0, 0, 15098, 35139, 39103, -1, 0, 0, 0, 0, 0, 0, 0, 0, 0, 0, 0, 0, 8278, 29037, 0, 35319, 31556, 0, 0, 0, 0, 0, 0, 0, 0, 37739, 0, 0, 34638, 0, 0, 0, 0, 0, 0, 0, 0, 0, 30060, 0, 0],[0, 0, 0, 29293, 0, 0, -1, 0, 0, 0, 0, 0, 0, 45551, 0, 0, 0, 0, 44196, 0, 11245, 0, 0, 0, 0, 27252, 0, 29491, 0, 0, 44504, 0, 14876, 0, 0, 28467, 0, 0, 0, 25917, 0, 0, 41855, 0, 0, 0, 0],[0, 0, 0, 0, 0, 0, 0, -1, 0, 0, 0, 0, 0, 0, 0, 17833, 24962, 0, 0, 0, 16426, 0, 0, 22715, 0, 0, 0, 0, 34566, 0, 0, 0, 0, 0, 33412, 15601, 0, 0, 0, 15710, 0, 0, 42238, 0, 0, 0, 34492],[37650, 0, 21712, 0, 36863, 0, 0, 0, -1, 25391, 0, 0, 0, 0, 29394, 41954, 32272, 0, 45358, 0, 40820, 0, 34141, 38140, 0, 0, 0, 0, 44707, 0, 0, 0, 20555, 0, 43153, 43856, 0, 36678, 0, 0, 0, 0, 0, 0, 0, 0, 0],[0, 0, 36911, 21284, 0, 0, 0, 0, 25391, -1, 26183, 0, 24041, 0, 0, 40297, 0, 43955, 0, 16346, 25126, 0, 41728, 0, 0, 45200, 30585, 0, 0, 31375, 22194, 9358, 0, 0, 40887, 0, 0, 17560, 0, 0, 0, 0, 21729, 21439, 29209, 0, 0],[39770, 0, 0, 0, 0, 0, 0, 0, 0, 26183, -1, 0, 20960, 0, 0, 0, 25439, 0, 0, 0, 0, 0, 0, 0, 0, 45264, 36251, 38706, 0, 36430, 0, 0, 0, 10567, 0, 0, 0, 0, 0, 38179, 21910, 0, 14036, 0, 0, 0, 0],[0, 0, 0, 0, 17721, 0, 0, 0, 0, 0, 0, -1, 0, 0, 0, 0, 0, 0, 0, 0, 0, 3502, 0, 42875, 23275, 0, 0, 0, 0, 0, 0, 0, 0, 0, 32146, 23623, 0, 0, 42896, 0, 0, 29452, 0, 0, 0, 0, 43347],[0, 0, 0, 0, 0, 0, 0, 0, 0, 24041, 20960, 0, -1, 0, 0, 15517, 34729, 0, 0, 0, 0, 0, 0, 31854, 37043, 38235, 0, 0, 0, 35683, 30536, 0, 0, 0, 0, 0, 0, 0, 32382, 0, 0, 0, 0, 0, 0, 36315, 0],[0, 0, 9401, 0, 0, 0, 45551, 0, 0, 0, 0, 0, 0, -1, 0, 0, 42153, 41444, 0, 0, 0, 0, 0, 0, 32456, 0, 0, 0, 32979, 26665, 0, 19144, 0, 0, 15448, 0, 24179, 0, 0, 23134, 0, 37544, 0, 0, 25942, 0, 0],[27912, 24958, 0, 0, 45991, 0, 0, 0, 29394, 0, 0, 0, 0, 0, -1, 44609, 0, 1407065271, 0, 0, 0, 0, 0, 0, 0, 0, 0, 0, 0, 0, 0, 0, 0, 0, 0, 0, 0, 32865, 22989, 0, 0, 0, 0, 34507, 0, 43634, 5419],[0, 0, 0, 0, 26521, 0, 0, 17833, 41954, 40297, 0, 0, 15517, 0, 44609, -1, 0, 16072, 0, 24331, 0, 0, 33208, 32647, 0, 0, 0, 10334, 11203, 0, 13653, 0, 35027, 42641, 42813, 6061, 0, 0, 0, 0, 0, 0, 34807, 0, 0, 0, 1130778655],[0, 0, 0, 0, 0, 0, 0, 24962, 32272, 0, 25439, 0, 34729, 42153, 0, 0, -1, 0, 0, 26232, 0, 27860, 0, 0, 0, 21051, 0, 21339, 0, 23699, 0, 0, 27813, 0, 0, 0, 43156, 0, 0, 0, 0, 21510, 0, 0, 40721, 0, 0],[31949, 0, 0, 0, 0, 0, 0, 0, 0, 43955, 0, 0, 0, 41444, 1407065271, 16072, 0, -1, 0, 0, 36072, 0, 34962, 0, 0, 0, 0, 25251, 0, 0, 27341, 36744, 0, 0, 0, 39798, 0, 0, 32075, 0, 35698, 0, 23594, 0, 27073, 0, 25887],[21237, 0, 0, 0, 0, 8278, 44196, 0, 45358, 0, 0, 0, 0, 0, 0, 0, 0, 0, -1, 42389, 0, 0, 0, 0, 45178, 0, 0, 0, 0, 0, 0, 0, 0, 0, 0, 0, 45197, 28869, 34136, 0, 0, 0, 34124, 0, 0, 0, 44823],[0, 35675, 508533803, 0, 24293, 29037, 0, 0, 0, 16346, 0, 0, 0, 0, 0, 24331, 26232, 0, 42389, -1, 0, 0, 0, 0, 0, 27077, 0, 29897, 0, 0, 0, 0, 0, 0, 0, 36509, 0, 0, 0, 0, 0, 0, 0, 0, 0, 0, 0],[0, 0, 0, 23701, 0, 0, 11245, 16426, 40820, 25126, 0, 0, 0, 0, 0, 0, 0, 36072, 0, 0, -1, 0, 36722, 0, 0, 0, 0, 0, 0, 0, 0, 0, 0, 0, 44399, 0, 0, 0, 0, 0, 0, 40419, 0, 0, 26109, 0, 0],[0, 0, 0, 0, 27918, 35319, 0, 0, 0, 0, 0, 3502, 0, 0, 0, 0, 27860, 0, 0, 0, 0, -1, 0, 0, 0, 0, 0, 0, 42530, 0, 0, 0, 0, 0, 0, 0, 0, 0, 45272, 0, 8270, 0, 0, 0, 0, 0, 0],[0, 0, 3982, 0, 0, 31556, 0, 0, 34141, 41728, 0, 0, 0, 0, 0, 33208, 0, 34962, 0, 0, 36722, 0, -1, 0, 0, 0, 0, 18581, 41259, 0, 0, 0, 0, 0, 0, 0, 22838, 0, 8705, 0, 0, 0, 38932, 0, 37184, 0, 0],[0, 0, 0, 0, 0, 0, 0, 22715, 38140, 0, 0, 42875, 31854, 0, 0, 32647, 0, 0, 0, 0, 0, 0, 0, -1, 39602, 0, 0, 0, 0, 0, 0, 41734, 42774, 0, 0, 39106, 45893, 44842, 0, 0, 0, 0, 0, 0, 0, 0, 0],[0, 0, 0, 0, 39417, 0, 0, 0, 0, 0, 0, 23275, 37043, 32456, 0, 0, 0, 0, 45178, 0, 0, 0, 0, 39602, -1, 0, 0, 0, 0, 0, 32530, 36445, 0, 42592, 0, 0, 0, 0, 0, 41370, 0, 0, 0, 0, 0, 45423, 0],[0, 0, 0, 28034, 18424, 0, 27252, 0, 0, 45200, 45264, 0, 38235, 0, 0, 0, 21051, 0, 0, 27077, 0, 0, 0, 0, 0, -1, 0, 0, 0, 0, 0, 0, 0, 0, 0, 0, 37108, 0, 0, 0, 0, 37829, 25447, 0, 0, 0, 0],[0, 39105, 0, 38137, 0, 0, 0, 0, 0, 30585, 36251, 0, 0, 0, 0, 0, 0, 0, 0, 0, 0, 0, 0, 0, 0, 0, -1, 0, 0, 32114, 33914, 15551, 0, 15751, 0, 0, 0, 0, 28453, 0, 45935, 0, 40492, 0, 0, 0, 0],[0, 0, 0, 0, 0, 0, 29491, 0, 0, 0, 38706, 0, 0, 0, 0, 10334, 21339, 25251, 0, 29897, 0, 0, 18581, 0, 0, 0, 0, -1, 0, 43486, 0, 0, 0, 0, 18578, 0, 0, 0, 0, 0, 0, 0, 0, 0, 0, 0, 0],[0, 0, 0, 38439, 0, 0, 0, 34566, 44707, 0, 0, 0, 0, 32979, 0, 11203, 0, 0, 0, 0, 0, 42530, 41259, 0, 0, 0, 0, 0, -1, 0, 0, 0, 0, 0, 0, 0, 0, 27822, 0, 0, 0, 0, 0, 0, 0, 0, 0],[12881, 0, 0, 13999, 0, 0, 0, 0, 0, 31375, 36430, 0, 35683, 26665, 0, 0, 23699, 0, 0, 0, 0, 0, 0, 0, 0, 0, 32114, 43486, 0, -1, 0, 24175, 0, 0, 0, 30509, 0, 34012, 16927, 0, 0, 0, 0, 0, 23667, 0, 0],[0, 0, 8036, 0, 0, 0, 44504, 0, 0, 22194, 0, 0, 30536, 0, 0, 13653, 0, 27341, 0, 0, 0, 0, 0, 0, 32530, 0, 33914, 0, 0, 0, -1, 37776, 0, 0, 0, 0, 21779, 0, 0, 0, 38666, 0, 0, 42242, 0, 0, 36327],[0, 0, 0, 0, 0, 37739, 0, 0, 0, 9358, 0, 0, 0, 19144, 0, 0, 0, 36744, 0, 0, 0, 0, 0, 41734, 36445, 0, 15551, 0, 0, 24175, 37776, -1, 0, 0, 45295, 0, 0, 0, 11477, 0, 0, 27183, 0, 32771, 0, 0, 0],[0, 27107, 31954, 40530, 0, 0, 14876, 0, 20555, 0, 0, 0, 0, 0, 0, 35027, 27813, 0, 0, 0, 0, 0, 0, 42774, 0, 0, 0, 0, 0, 0, 0, 0, -1, 0, 44938, 22287, 0, 24018, 0, 38531, 34282, 0, 34829, 0, 0, 25172, 0],[0, 0, 0, 0, 29147, 0, 0, 0, 0, 0, 10567, 0, 0, 0, 0, 42641, 0, 0, 0, 0, 0, 0, 0, 0, 42592, 0, 15751, 0, 0, 0, 0, 0, 0, -1, 46288, 0, 0, 45786, 0, 21996, 43342, 15917, 0, 0, 0, 0, 0],[0, 0, 0, 0, 0, 34638, 0, 33412, 43153, 40887, 0, 32146, 0, 15448, 0, 42813, 0, 0, 0, 0, 44399, 0, 0, 0, 0, 0, 0, 18578, 0, 0, 0, 45295, 44938, 46288, -1, 0, 0, 42274, 0, 0, 0, 15325, 12634, 0, 0, 8701, 0],[28561, 0, 0, 0, 0, 0, 28467, 15601, 43856, 0, 0, 23623, 0, 0, 0, 6061, 0, 39798, 0, 36509, 0, 0, 0, 39106, 0, 0, 0, 0, 0, 30509, 0, 0, 22287, 0, 0, -1, 0, 26777, 0, 0, 44916, 0, 0, 41348, 0, 0, 35317],[45093, 0, 0, 0, 0, 0, 0, 0, 0, 0, 0, 0, 0, 24179, 0, 0, 43156, 0, 45197, 0, 0, 0, 22838, 45893, 0, 37108, 0, 0, 0, 0, 21779, 0, 0, 0, 0, 0, -1, 36696, 0, 34667, 0, 0, 0, 0, 0, 0, 39843],[23182, 25812, 0, 0, 0, 0, 0, 0, 36678, 17560, 0, 0, 0, 0, 32865, 0, 0, 0, 28869, 0, 0, 0, 0, 44842, 0, 0, 0, 0, 27822, 34012, 0, 0, 24018, 45786, 42274, 26777, 36696, -1, 24318, 21225, 0, 0, 0, 35357, 0, 0, 0],[0, 0, 0, 0, 0, 0, 0, 0, 0, 0, 0, 42896, 32382, 0, 22989, 0, 0, 32075, 34136, 0, 0, 45272, 8705, 0, 0, 0, 28453, 0, 0, 16927, 0, 11477, 0, 0, 0, 0, 0, 24318, -1, 0, 0, 0, 0, 31935, 0, 19121, 0],[39262, 0, 46061, 0, 0, 0, 25917, 15710, 0, 0, 38179, 0, 0, 23134, 0, 0, 0, 0, 0, 0, 0, 0, 0, 0, 41370, 0, 0, 0, 0, 0, 0, 0, 38531, 21996, 0, 0, 34667, 21225, 0, -1, 9861, 0, 0, 29936, 0, 0, 0],[0, 0, 0, 0, 0, 0, 0, 0, 0, 0, 21910, 0, 0, 0, 0, 0, 0, 35698, 0, 0, 0, 8270, 0, 0, 0, 0, 45935, 0, 0, 0, 38666, 0, 34282, 43342, 0, 44916, 0, 0, 0, 9861, -1, 0, 0, 0, 0, 0, 23012],[45668, 37643, 0, 0, 0, 0, 0, 0, 0, 0, 0, 29452, 0, 37544, 0, 0, 21510, 0, 0, 0, 40419, 0, 0, 0, 0, 37829, 0, 0, 0, 0, 0, 27183, 0, 15917, 15325, 0, 0, 0, 0, 0, 0, -1, 0, 0, 0, 0, 0],[27192, 0, 0, 0, 0, 0, 41855, 42238, 0, 21729, 14036, 0, 0, 0, 0, 34807, 0, 23594, 34124, 0, 0, 0, 38932, 0, 0, 25447, 40492, 0, 0, 0, 0, 0, 34829, 0, 12634, 0, 0, 0, 0, 0, 0, 0, -1, 31810, 0, 0, 0],[0, 0, 42288, 0, 0, 0, 0, 0, 0, 21439, 0, 0, 0, 0, 34507, 0, 0, 0, 0, 0, 0, 0, 0, 0, 0, 0, 0, 0, 0, 0, 42242, 32771, 0, 0, 0, 41348, 0, 35357, 31935, 29936, 0, 0, 31810, -1, 0, 0, 0],[43549, 0, 0, 0, 0, 30060, 0, 0, 0, 29209, 0, 0, 0, 25942, 0, 0, 40721, 27073, 0, 0, 26109, 0, 37184, 0, 0, 0, 0, 0, 0, 23667, 0, 0, 0, 0, 0, 0, 0, 0, 0, 0, 0, 0, 0, 0, -1, 0, 0],[43895, 0, 0, 0, 0, 0, 0, 0, 0, 0, 0, 0, 36315, 0, 43634, 0, 0, 0, 0, 0, 0, 0, 0, 0, 45423, 0, 0, 0, 0, 0, 0, 0, 25172, 0, 8701, 0, 0, 0, 19121, 0, 0, 0, 0, 0, 0, -1, 37580],[0, 0, 0, 0, 0, 0, 0, 34492, 0, 0, 0, 43347, 0, 0, 5419, 1130778655, 0, 25887, 44823, 0, 0, 0, 0, 0, 0, 0, 0, 0, 0, 0, 36327, 0, 0, 0, 0, 35317, 39843, 0, 0, 0, 23012, 0, 0, 0, 0, 37580, -1]]